GLPSOL--GLPK LP/MIP Solver 5.0
Parameter(s) specified in the command line:
 --lp ../modeles/4_404.lp --log 4_404.log
Reading problem data from '../modeles/4_404.lp'...
1633 rows, 3240 columns, 11324 non-zeros
1616 integer variables, all of which are binary
4883 lines were read
GLPK Integer Optimizer 5.0
1633 rows, 3240 columns, 11324 non-zeros
1616 integer variables, all of which are binary
Preprocessing...
1592 constraint coefficient(s) were reduced
1633 rows, 3236 columns, 11320 non-zeros
1616 integer variables, all of which are binary
Scaling...
 A: min|aij| =  9.803e-05  max|aij| =  4.000e+00  ratio =  4.080e+04
GM: min|aij| =  7.036e-02  max|aij| =  1.421e+01  ratio =  2.020e+02
EQ: min|aij| =  4.950e-03  max|aij| =  1.000e+00  ratio =  2.020e+02
2N: min|aij| =  3.906e-03  max|aij| =  1.766e+00  ratio =  4.521e+02
Constructing initial basis...
Size of triangular part is 1633
Solving LP relaxation...
GLPK Simplex Optimizer 5.0
1633 rows, 3236 columns, 11320 non-zeros
      0: obj =   8.000000000e+00 inf =   1.950e+01 (9)
     91: obj =   4.438439763e-01 inf =   0.000e+00 (0)
*   308: obj =  -1.999901970e+00 inf =   1.257e-15 (0)
OPTIMAL LP SOLUTION FOUND
Integer optimization begins...
Long-step dual simplex will be used
+   308: mip =     not found yet >=              -inf        (1; 0)
+  1001: >>>>>  -1.999901970e+00 >=  -1.999901970e+00 < 0.1% (692; 0)
+  1001: mip =  -1.999901970e+00 >=     tree is empty   0.0% (0; 1383)
INTEGER OPTIMAL SOLUTION FOUND
Time used:   1.5 secs
Memory used: 4.9 Mb (5099798 bytes)
